*SPEF "IEEE 1481-1998"
*DESIGN "adder_2bit"
*DATE "Thu Mar 19 01:31:09 2026"
*VENDOR "Cadence Design Systems, Inc."
*PROGRAM "Innovus"
*VERSION "17.12-s095_1"
*DESIGN_FLOW "PIN_CAP NONE" "NAME_SCOPE LOCAL"
*DIVIDER /
*DELIMITER :
*BUS_DELIMITER []
*T_UNIT 1 NS
*C_UNIT 1 PF
*R_UNIT 1 OHM
*L_UNIT 1 HENRY

// MMMC spef file for corner 'RC_corner_25'

*NAME_MAP

*1 a[1]
*2 a[0]
*3 b[1]
*4 b[0]
*5 sum[1]
*6 sum[0]
*7 clk
*8 cout
*9 n9
*10 n10
*11 n11
*12 n12
*13 n13
*14 n14
*15 n15
*16 n16
*17 n17
*18 n18
*19 n21
*20 n22
*21 temp[2]
*22 temp[1]
*23 temp[0]
*24 FE_RC_1_0
*25 FE_RC_0_0
*26 temp_reg_2_
*27 cout_reg
*28 temp_reg_1_
*29 temp_reg_0_
*30 sum_reg_1_
*31 sum_reg_0_
*32 U17
*33 U19
*34 U20
*35 U21
*36 U22
*37 U24
*38 U25
*39 U26
*40 U29
*41 U30


*PORTS

*7 I *C 10.08 0
*1 I *C 0 6.588
*2 I *C 0 0.72
*3 I *C 0 18.612
*4 I *C 0 12.6
*5 O *C 19.872 0.72
*6 O *C 19.872 9.684
*8 O *C 19.872 18.612


*D_NET *1 0.000269771

*CONN
*P *1 I *C 0 6.588 *L 0
*I *39:C I *C 5.832 10.26 *L 0.000368 *D NAND3xp33_ASAP7_75t_R
*I *25:A I *C 5.184 6.3 *L 0.000774 *D XOR2xp5_ASAP7_75t_R
*I *24:A2 I *C 5.832 12.78 *L 0.000422 *D AOI21xp5_ASAP7_75t_R

*CAP
1 *24:A2 3.68357e-05
2 *39:C 1.03712e-05
3 *25:A 1.43051e-06
4 *1 5.26309e-05
5 *1:4 8.08239e-05
6 *1:5 8.76784e-05

*RES
1 *1:5 *1 86.4577
2 *1:4 *1:5 72.7588
3 *25:A *1:5 11.1566
4 *39:C *1:4 32.1649
5 *24:A2 *1:4 75.4956
*END

*D_NET *2 0.000660658

*CONN
*P *2 I *C 0 0.72 *L 0
*I *41:A1 I *C 8.568 6.444 *L 0.000415 *D A2O1A1Ixp33_ASAP7_75t_R
*I *40:B I *C 8.352 8.1 *L 0.000369 *D NAND3xp33_ASAP7_75t_R
*I *39:B I *C 5.976 10.26 *L 0.000369 *D NAND3xp33_ASAP7_75t_R
*I *38:B I *C 6.192 8.46 *L 0.000369 *D NAND3xp33_ASAP7_75t_R
*I *37:B I *C 8.064 10.764 *L 0.000265 *D NAND2xp33_ASAP7_75t_R
*I *36:A2 I *C 10.152 9.972 *L 0.000305 *D OAI21xp33_ASAP7_75t_R

*CAP
1 *36:A2 6.50287e-05
2 *41:A1 2.20537e-06
3 *40:B 2.57492e-05
4 *37:B 3.3319e-05
5 *38:B 7.03335e-06
6 *39:B 1.54972e-06
7 *2 0.000108063
8 *2:7 6.59823e-05
9 *2:8 6.96182e-05
10 *2:9 4.61936e-05
11 *2:10 2.87294e-05
12 *2:11 4.04716e-05
13 *2:12 0.000166714

*RES
1 *2:12 *2 209.339
2 *2:11 *2:12 34.7732
3 *2:10 *2:11 18.8808
4 *2:9 *2:10 26.3039
5 *39:B *2:8 11.3622
6 *2:8 *2:10 12.313
7 *38:B *2:11 27.2748
8 *37:B *2:9 47.9692
9 *40:B *2:7 54.6634
10 *2:7 *2:12 54.4213
11 *41:A1 *2:7 11.3622
12 *36:A2 *2:8 79.1429
*END

*D_NET *3 0.000385642

*CONN
*P *3 I *C 0 18.612 *L 0
*I *38:C I *C 6.048 8.46 *L 0.000368 *D NAND3xp33_ASAP7_75t_R
*I *25:B I *C 5.472 6.444 *L 0.000758 *D XOR2xp5_ASAP7_75t_R
*I *24:A1 I *C 6.264 12.924 *L 0.000429 *D AOI21xp5_ASAP7_75t_R

*CAP
1 *24:A1 9.23872e-06
2 *38:C 7.51019e-06
3 *3 0.000105083
4 *25:B 2.31862e-05
5 *3:4 0.000162125
6 *3:5 7.84993e-05

*RES
1 *25:B *3:5 53.5586
2 *3:5 *3:4 88.6513
3 *3:4 *3 209.359
4 *38:C *3:5 28.4973
5 *24:A1 *3:4 19.8518
*END

*D_NET *4 0.000508189

*CONN
*P *4 I *C 0 12.6 *L 0
*I *41:A2 I *C 8.856 6.444 *L 0.000414 *D A2O1A1Ixp33_ASAP7_75t_R
*I *40:A I *C 8.64 7.956 *L 0.000371 *D NAND3xp33_ASAP7_75t_R
*I *39:A I *C 6.264 10.116 *L 0.000371 *D NAND3xp33_ASAP7_75t_R
*I *38:A I *C 6.48 8.604 *L 0.000371 *D NAND3xp33_ASAP7_75t_R
*I *37:A I *C 7.776 10.62 *L 0.000268 *D NAND2xp33_ASAP7_75t_R
*I *36:A1 I *C 9.72 10.116 *L 0.000326 *D OAI21xp33_ASAP7_75t_R

*CAP
1 *36:A1 2.27094e-05
2 *41:A2 1.49012e-05
3 *40:A 5.126e-06
4 *37:A 2.54512e-05
5 *38:A 1.26958e-05
6 *39:A 3.63588e-06
7 *4 8.58307e-05
8 *4:7 8.85725e-05
9 *4:8 4.5836e-05
10 *4:9 0.000128746
11 *4:10 5.79357e-05
12 *4:11 1.67489e-05

*RES
1 *4:11 *4:10 0.543356
2 *4:10 *4:9 26.3039
3 *4:9 *4 156.18
4 *39:A *4:11 23.6753
5 *38:A *4:11 35.1532
6 *37:A *4:9 35.7443
7 *40:A *4:8 23.4696
8 *4:8 *4:7 49.5313
9 *4:7 *4:10 51.9763
10 *41:A2 *4:8 33.9307
11 *36:A1 *4:7 27.1868
*END

*D_NET *5 0.000240207

*CONN
*P *5 O *C 19.872 0.72 *L 1e-05
*I *30:QN O *C 13.536 5.94 *L 0 *D DFFHQNx1_ASAP7_75t_R

*CAP
1 *30:QN 0.000120103
2 *5 0.000120103

*RES
1 *5 *30:QN 226.834
*END

*D_NET *6 0.000148654

*CONN
*P *6 O *C 19.872 9.684 *L 1e-05
*I *31:QN O *C 13.752 10.62 *L 0 *D DFFHQNx1_ASAP7_75t_R

*CAP
1 *6 6.07371e-05
2 *31:QN 1.35899e-05
3 *6:2 7.4327e-05

*RES
1 *6:2 *31:QN 51.1338
2 *6 *6:2 99.2941
*END

*D_NET *7 0.000355959

*CONN
*P *7 I *C 10.08 0 *L 0
*I *31:CLK I *C 9.864 10.764 *L 0.00033 *D DFFHQNx1_ASAP7_75t_R
*I *30:CLK I *C 9.648 5.796 *L 0.00033 *D DFFHQNx1_ASAP7_75t_R
*I *29:CLK I *C 9.864 8.604 *L 0.00033 *D DFFHQNx1_ASAP7_75t_R
*I *28:CLK I *C 9.864 7.956 *L 0.00033 *D DFFHQNx1_ASAP7_75t_R
*I *27:CLK I *C 9.648 12.924 *L 0.00033 *D DFFHQNx1_ASAP7_75t_R
*I *26:CLK I *C 8.568 12.276 *L 0.00033 *D DFFHQNx1_ASAP7_75t_R

*CAP
1 *31:CLK 7.7486e-06
2 *29:CLK 7.7486e-06
3 *28:CLK 7.689e-06
4 *7 1.66893e-06
5 *27:CLK 1.31726e-05
6 *30:CLK 5.84125e-06
7 *26:CLK 1.90139e-05
8 *7:7 3.70145e-05
9 *7:8 3.31998e-05
10 *7:9 3.36766e-05
11 *7:10 6.1512e-05
12 *7:11 8.46982e-05
13 *7:12 4.2975e-05

*RES
1 *26:CLK *7:12 58.023
2 *7:11 *7:10 129.149
3 *7:9 *7:11 34.7732
4 *7:8 *7:9 13.9908
5 *7:7 *7:8 34.7732
6 *7:12 *7:7 19.0846
7 *30:CLK *7:11 23.6753
8 *27:CLK *7:12 37.0549
9 *7:10 *7 3.3958
10 *28:CLK *7:9 26.0524
11 *29:CLK *7:8 26.0524
12 *31:CLK *7:7 26.0524
*END

*D_NET *8 0.000236869

*CONN
*P *8 O *C 19.872 18.612 *L 1e-05
*I *27:QN O *C 13.536 12.78 *L 0 *D DFFHQNx1_ASAP7_75t_R

*CAP
1 *27:QN 0.000118434
2 *8 0.000118434

*RES
1 *8 *27:QN 237.225
*END

*D_NET *9 5.03063e-05

*CONN
*I *32:Y O *C 12.168 10.26 *L 0 *D INVxp33_ASAP7_75t_R
*I *31:D I *C 10.584 10.62 *L 0.000429 *D DFFHQNx1_ASAP7_75t_R

*CAP
1 *32:Y 1.00732e-05
2 *31:D 1.508e-05
3 *9:2 2.51532e-05

*RES
1 *31:D *9:2 52.3562
2 *9:2 *32:Y 28.4092
*END

*D_NET *10 8.21352e-05

*CONN
*I *34:Y O *C 13.464 6.3 *L 0 *D INVxp67_ASAP7_75t_R
*I *30:D I *C 10.368 5.94 *L 0.000429 *D DFFHQNx1_ASAP7_75t_R

*CAP
1 *34:Y 1.54376e-05
2 *30:D 1.57356e-05
3 *10:2 2.5332e-05
4 *10:3 2.563e-05

*RES
1 *30:D *10:3 29.6317
2 *10:3 *10:2 36.1719
3 *10:2 *34:Y 40.6343
*END

*D_NET *11 5.66244e-05

*CONN
*I *41:Y O *C 9.432 6.3 *L 0 *D A2O1A1Ixp33_ASAP7_75t_R
*I *28:D I *C 10.584 8.1 *L 0.000429 *D DFFHQNx1_ASAP7_75t_R

*CAP
1 *41:Y 2.83122e-05
2 *28:D 2.83122e-05

*RES
1 *28:D *41:Y 83.2106
*END

*D_NET *12 0.000111818

*CONN
*I *33:Y O *C 13.68 12.42 *L 0 *D INVxp67_ASAP7_75t_R
*I *27:D I *C 10.368 12.78 *L 0.000429 *D DFFHQNx1_ASAP7_75t_R

*CAP
1 *33:Y 2.32458e-05
2 *27:D 2.05636e-05
3 *12:2 3.53456e-05
4 *12:3 3.26633e-05

*RES
1 *27:D *12:3 36.9668
2 *12:2 *33:Y 40.6343
3 *12:3 *12:2 36.1719
*END

*D_NET *13 6.77109e-05

*CONN
*I *26:D I *C 9.288 12.42 *L 0.000429 *D DFFHQNx1_ASAP7_75t_R
*I *24:Y O *C 6.696 12.78 *L 0 *D AOI21xp5_ASAP7_75t_R

*CAP
1 *24:Y 3.38554e-05
2 *26:D 3.38554e-05

*RES
1 *26:D *24:Y 94.213
*END

*D_NET *14 4.14848e-05

*CONN
*I *36:Y O *C 10.584 10.116 *L 0 *D OAI21xp33_ASAP7_75t_R
*I *29:D I *C 10.584 8.46 *L 0.000429 *D DFFHQNx1_ASAP7_75t_R

*CAP
1 *36:Y 2.07424e-05
2 *29:D 2.07424e-05

*RES
1 *29:D *36:Y 71.1215
*END

*D_NET *15 9.01222e-05

*CONN
*I *37:Y O *C 8.352 10.62 *L 0 *D NAND2xp33_ASAP7_75t_R
*I *36:B I *C 10.296 9.972 *L 0.000305 *D OAI21xp33_ASAP7_75t_R

*CAP
1 *36:B 2.86102e-05
2 *37:Y 1.64509e-05
3 *15:2 4.50611e-05

*RES
1 *15:2 *37:Y 49.7735
2 *36:B *15:2 40.6343
*END

*D_NET *16 7.62939e-05

*CONN
*I *39:Y O *C 6.408 10.26 *L 0 *D NAND3xp33_ASAP7_75t_R
*I *35:B I *C 6.12 12.276 *L 0.000265 *D NAND2xp33_ASAP7_75t_R

*CAP
1 *39:Y 3.8147e-05
2 *35:B 3.8147e-05

*RES
1 *35:B *39:Y 83.2784
*END

*D_NET *17 8.74996e-05

*CONN
*I *38:Y O *C 6.624 8.46 *L 0 *D NAND3xp33_ASAP7_75t_R
*I *35:A I *C 6.408 12.42 *L 0.000268 *D NAND2xp33_ASAP7_75t_R

*CAP
1 *38:Y 4.37498e-05
2 *35:A 4.37498e-05

*RES
1 *35:A *38:Y 108.951
*END

*D_NET *18 4.56572e-05

*CONN
*I *35:Y O *C 5.832 12.42 *L 0 *D NAND2xp33_ASAP7_75t_R
*I *24:B I *C 6.408 12.924 *L 0.000374 *D AOI21xp5_ASAP7_75t_R

*CAP
1 *35:Y 2.28286e-05
2 *24:B 2.28286e-05

*RES
1 *24:B *35:Y 68.5406
*END

*D_NET *19 4.20809e-05

*CONN
*I *41:C I *C 9.288 6.588 *L 0.000379 *D A2O1A1Ixp33_ASAP7_75t_R
*I *40:Y O *C 8.784 8.1 *L 0 *D NAND3xp33_ASAP7_75t_R

*CAP
1 *40:Y 2.10404e-05
2 *41:C 2.10404e-05

*RES
1 *41:C *40:Y 69.7631
*END

*D_NET *20 0.000107288

*CONN
*I *41:B I *C 9 6.444 *L 0.000368 *D A2O1A1Ixp33_ASAP7_75t_R
*I *40:C I *C 8.208 8.1 *L 0.000368 *D NAND3xp33_ASAP7_75t_R
*I *25:Y O *C 6.912 6.3 *L 0 *D XOR2xp5_ASAP7_75t_R

*CAP
1 *41:B 1.43051e-05
2 *40:C 2.05636e-05
3 *25:Y 1.87755e-05
4 *20:3 5.36442e-05

*RES
1 *20:3 *25:Y 29.6317
2 *40:C *20:3 62.2041
3 *41:B *20:3 25.9643
*END

*D_NET *21 2.45571e-05

*CONN
*I *33:A I *C 13.392 12.42 *L 0.000318 *D INVxp67_ASAP7_75t_R
*I *26:QN O *C 12.456 12.42 *L 0 *D DFFHQNx1_ASAP7_75t_R

*CAP
1 *33:A 1.06692e-05
2 *26:QN 1.60933e-06
3 *21:2 1.22786e-05

*RES
1 *21:2 *26:QN 11.3622
2 *33:A *21:2 24.1306
*END

*D_NET *22 4.18425e-05

*CONN
*I *34:A I *C 13.752 6.3 *L 0.000318 *D INVxp67_ASAP7_75t_R
*I *28:QN O *C 13.752 8.1 *L 0 *D DFFHQNx1_ASAP7_75t_R

*CAP
1 *28:QN 2.09212e-05
2 *34:A 2.09212e-05

*RES
1 *34:A *28:QN 73.5664
*END

*D_NET *23 6.53267e-05

*CONN
*I *32:A I *C 12.456 10.26 *L 0.00021 *D INVxp33_ASAP7_75t_R
*I *29:QN O *C 13.752 8.46 *L 0 *D DFFHQNx1_ASAP7_75t_R

*CAP
1 *29:QN 6.79493e-06
2 *32:A 8.10623e-06
3 *23:2 2.45571e-05
4 *23:3 2.58684e-05

*RES
1 *32:A *23:3 22.2968
2 *23:2 *29:QN 18.6293
3 *23:3 *23:2 50.8419
*END

